NAME : portcgen-20-90
COMMENT : portcgen N=20, seed=90
TYPE : TSP
DIMENSION : 20
EDGE_WEIGHT_TYPE : EUC_2D
NODE_COORD_SECTION
1 51 97
2 50 93
3 74 39
4 62 94
5 66 85
6 53 97
7 71 52
8 65 101
9 69 95
10 71 85
11 78 40
12 78 76
13 46 114
14 88 56
15 78 58
16 93 56
17 52 79
18 79 75
19 54 96
20 78 77
